6 6
6 1 2 1 1 0 3 1 1 6 1 3 7 2 5 3 3 3 1 4 6
6 1 1 8 1 2 5 1 4 10 1 5 10 1 0 10 1 3 4
6 2 2 5 5 5 1 3 4 1 5 8 1 0 9 2 1 1 5 1 1 4 7
6 1 1 5 1 0 5 1 2 5 2 3 3 0 3 1 4 8 1 5 9
6 1 2 9 1 1 3 1 4 5 2 5 4 1 4 1 0 3 1 3 1
6 2 1 3 3 3 1 3 3 1 5 9 1 0 10 1 4 4 1 2 1
